62951 61137 59809 59036 57614 56808 56223 55271 54716 54139 53776 52665 51752 50931 49908 49282 48734 48004 47357 46440 45824 45213 44236 43887 43592 43278 42912 42672 42302 42135 41853 41564 41282 41100 40906 40681 40307 39996 39705 39142 38902 38546 38330 38020 37896 37676 37333 37181 37065 36958 36819 36721 36610 36510 36401 36225 36074 35885 35792 35639 35441 35314 35227 35174 35064 34971 34847 34790 34663 34556 34447 34367 34324 34190 34078 33984 33860 33722 33652 33581 33530 33479 33397 33336 33296 33262 33233 33098 32959 32885 32857 32794 32762 32705 32663 32600 32296 32181 32105 32042 31991 31966 31935 31891 31815 31740 31651 31579 31528 31469 31420 31387 31346 31332 31294 31246 31194 31194 31147 31128 31092 30941 30851 30819 30774 30663 30603 30569 30546 30504 30430 30355 30280 30240 30201 30187 30082 30082 30029 30017 30011 29950 29943 29897 29877 29775 29722 29655 29643 29611 29598 29561 29520 29460 29400 29231 29162 29100 29099 28998 28968 28966 28959 28870 28854 28690 28564 28511 28421 28367 28261 28248 28179 28073 28016 28003 28000 28000 28000 27993 27985 27967 27952 27939 27872 27872 27867 27865 27860 27825 27818 27813 27787 27787 27762 27755 27743 27728 27699 27697 27697 27686 27686 27686 27658 27658 27639 27634 27634 27634 27634 27634 27634 27626 27626 27610 27602 27601 27598 27597 27597 27597 27597 27597 27595 27536 27536 27534 27534 27534 27534 27534 27534 27534 27534 27500 27500 27470 27470 27470 27461 27461 27458 27458 27458 27458 27448 27448 27440 27440 27385 27377 27372 27372 27372 27372 27372 27361 27361 27361 27361 27361 27353 27353 27348 27348 27343 27343 27343 27343 27341 27341 27339 27339 27338 27338 27333 27333 27332 27321 27321 27321 27302 27295 27295 27276 27264 27264 27264 27264 27264 27264 27264 27264 27264 27264 27264 27264 27264 27264 27264 27264 27264 27264 27264 27264 27264 27264 27264 27264 27264 27264 27264 27264 27264 27264 27264 27264 27264 27264 27264 27264 27264 27264 27264 27264 27205 27205 27205 27205 27189 27189 27147 27142 27142 27142 27142 27121 27121 27121 27121 27121 27121 27121 27121 27119 27119 27119 27119 27115 27115 27115 27097 27097 27077 27077 27077 27077 27027 27027 26996 26946 26893 26866 26866 26829 26829 26807 26800 26800 26800 26800 26800 26800 26800 26800 26800 26792 26791 26774 26765 26743 26735 26728 26711 26711 26697 26697 26697 26697 26680 26680 26676 26674 26674 26672 26571 26571 26567 26565 26494 26490 26485 26485 26485 26485 26485 26471 26471 26471 26471 26471 26471 26471 26440 26440 26432 26432 26432 26432 26432 26354 26354 26354 26344 26344 26344 26344 26335 26335 26335 26335 26335 26335 26335 26324 26324 26324 26315 26315 26315 26315 26315 26312 26312 26312 26312 26312 26312 26312 26312 26312 26312 26312 26312 26312 26312 26312 26312 26312 26312 26309 26309 26309 26309 26295 26295 26283 26283 26283 26283 26283 26283 26283 26283 26283 26283 26283 26283 26283 26283 26283 26283 26271 26271 26271 26271 26271 26271 26271 26271 26271 26271 26271 26271 26271 26271 26271 26271 26271 26271 26271 26271 26271 26271 26271 26271 26271 26271 26271 26271 26257 26257 26257 26257 26257 26257 26252 26252 26252 26252 26252 26252 26241 26241 26241 26241 26241 26241 26241 26241 26241 26241 26241 26241 26241 26241 26241 26241 26241 26241 26241 26241 26241 26241 26241 26230 26230 26222 26219 26219 26211 26211 26211 26211 26196 26196 26196 26196 26196 26196 26196 26196 26196 26196 26196 26196 26196 26196 26196 26196 26196 26196 26196 26196 26196 26196 26196 26196 26196 26196 26196 26196 26196 26196 26196 26196 26196 26196 26196 26196 26196 26196 26196 26196 26196 26196 26196 26196 26196 26196 26196 26196 26196 26196 26196 26196 26196 26196 26194 26194 26194 26194 26189 26189 26189 26189 26189 26189 26189 26189 26189 26189 26189 26189 26189 26189 26189 26189 26189 26189 26189 26189 26189 26189 26189 26189 26189 26189 26189 26189 26189 26189 26189 26189 26189 26189 26189 26189 26189 26189 26189 26189 26178 26178 26178 26175 26175 26175 26175 26163 26163 26153 26077 26077 26055 26048 26048 25992 25957 25957 25957 25957 25957 25957 25957 25957 25957 25957 25957 25957 25957 25957 25957 25957 25957 25957 25957 25953 25953 25940 25940 25940 25940 25940 25940 25940 25940 25940 25940 25940 25940 25940 25940 25940 25940 25940 25940 25940 25940 25940 25940 25940 25940 25940 25940 25940 25940 25940 25940 25940 25940 25940 25940 25940 25938 25938 25938 25938 25938 25938 25938 25938 25938 25938 25938 25938 25938 25938 25938 25938 25938 25938 25938 25938 25938 25938 25938 25938 25938 25938 25938 25938 25938 25938 25938 25938 25938 25938 25938 25938 25938 25938 25938 25938 25938 25938 25938 25938 25938 25937 25937 25937 25937 25937 25937 25937 25937 25937 25937 25937 25937 25937 25937 25937 25937 25937 25937 25909 25904 25904 25904 25899 25899 25899 25899 25857 25857 25857 25857 25857 25857 25857 25857 25857 25857 25857 25857 25857 25857 25857 25857 25857 25857 25857 25857 25857 25857 25857 25857 25857 25857 25857 25857 25857 25857 25857 25857 25857 25857 25857 25857 25857 25857 25857 25857 25857 25857 25857 25857 25857 25857 25857 25857 25857 25857 25857 25857 25857 25857 25857 25857 25857 25857 25857 25857 25857 25857 25857 25857 25857 25857 25857 25857 25857 25857 25857 25857 25849 25849 25849 25849 25849 25849 25849 25849 25849 25849 25849 25849 25846 25846 25846 25846 25846 25846 25846 25846 25846 25846 25846 25846 25846 25846 25846 25846 25846 25846 25846 25846 25846 25846 25846 25846 25846 25846 25846 25846 25846 25846 25846 25846 25846 25846 25846 25846 25846 25846 25846 25846 25846 25846 25846 25846 25846 25846 25846 25846 25846 25846 25846 25846 25846 25846 25846 25846 25846 25846 25846 25846 25846 25846 25846 25846 25846 25846 25846 25846 25846 25846 25846 25846 25846 25846 25846 25846 25846 25846 25846 25846 25846 25846 25846 25846 25846 25846 25846 25846 25846 25846 25846 25846 25846 25846 25846 25846 25846 25846 25846 25846 25846 25846 25846 25846 25846 25846 25846 25846 25846 25846 25846 25846 25846 25846 25846 25846 25846 25846 25846 25846 
66764 64513 62890 61550 60486 59578 58673 57519 56724 55997 55027 54299 53521 52618 51742 50907 50079 49341 48702 48014 47325 46583 45864 45165 44493 43926 43546 43222 42911 42586 42303 42059 41788 41523 41249 41028 40806 40545 40244 39869 39439 39084 38726 38410 38306 38119 37784 37511 37313 37167 37025 36894 36783 36700 36590 36465 36293 36141 36002 35870 35720 35509 35338 35310 35216 35131 35072 34943 34836 34755 34630 34534 34425 34352 34257 34157 34025 33915 33815 33715 33649 33564 33500 33462 33377 33320 33297 33260 33195 33065 32954 32882 32834 32771 32741 32691 32655 32597 32378 32142 32089 32022 31979 31963 31927 31877 31799 31701 31645 31586 31498 31450 31412 31404 31375 31316 31289 31245 31227 31184 31141 31111 31065 30931 30848 30804 30745 30650 30595 30563 30538 30489 30413 30334 30279 30220 30186 30181 30123 30034 30031 30022 30004 29980 29934 29905 29858 29789 29682 29655 29645 29627 29589 29558 29523 29493 29390 29329 29160 29113 29081 28990 28965 28964 28960 28907 28834 28742 28617 28517 28451 28380 28306 28239 28166 28076 28015 28002 28000 27999 27999 27996 27990 27971 27944 27924 27889 27871 27866 27866 27859 27850 27817 27816 27807 27781 27765 27754 27746 27726 27703 27696 27696 27694 27685 27685 27674 27649 27637 27634 27634 27634 27634 27633 27633 27632 27625 27621 27606 27600 27599 27597 27597 27597 27596 27596 27596 27580 27534 27534 27534 27534 27534 27534 27534 27533 27533 27527 27499 27470 27469 27469 27467 27460 27458 27458 27457 27457 27455 27447 27444 27439 27424 27380 27374 27372 27372 27371 27371 27369 27361 27361 27360 27360 27359 27352 27349 27343 27343 27343 27342 27342 27342 27340 27340 27338 27338 27337 27335 27331 27331 27329 27320 27320 27316 27300 27292 27275 27272 27264 27264 27264 27264 27264 27264 27264 27264 27264 27264 27264 27264 27264 27264 27264 27264 27264 27264 27264 27264 27264 27264 27264 27264 27264 27264 27264 27264 27264 27264 27264 27264 27264 27264 27264 27264 27264 27263 27263 27251 27205 27204 27204 27200 27186 27163 27142 27142 27141 27141 27137 27121 27121 27121 27121 27121 27120 27120 27120 27119 27118 27118 27118 27114 27114 27111 27096 27077 27077 27076 27076 27062 27026 27017 26945 26933 26886 26865 26857 26827 26806 26805 26800 26800 26800 26800 26800 26800 26799 26799 26798 26791 26786 26764 26747 26734 26727 26722 26710 26697 26697 26696 26696 26690 26677 26674 26673 26673 26673 26646 26569 26567 26564 26547 26486 26485 26485 26485 26484 26484 26481 26471 26471 26471 26471 26470 26470 26459 26438 26432 26432 26432 26431 26431 26410 26353 26353 26352 26344 26343 26343 26342 26335 26335 26335 26335 26334 26334 26332 26323 26323 26321 26315 26315 26314 26314 26314 26312 26312 26312 26312 26312 26312 26312 26312 26312 26312 26312 26312 26312 26312 26312 26311 26311 26311 26309 26308 26308 26305 26294 26283 26283 26283 26283 26283 26283 26283 26283 26283 26283 26283 26283 26283 26283 26282 26282 26281 26271 26271 26271 26271 26271 26271 26271 26271 26271 26271 26271 26271 26271 26271 26271 26271 26271 26271 26271 26271 26271 26271 26271 26271 26271 26270 26270 26267 26257 26257 26257 26256 26256 26255 26252 26252 26252 26251 26251 26250 26241 26241 26241 26241 26241 26241 26241 26241 26241 26241 26241 26241 26241 26241 26241 26241 26241 26241 26241 26241 26240 26240 26238 26229 26222 26221 26218 26211 26211 26210 26210 26207 26196 26196 26196 26196 26196 26196 26196 26196 26196 26196 26196 26196 26196 26196 26196 26196 26196 26196 26196 26196 26196 26196 26196 26196 26196 26196 26196 26196 26196 26196 26196 26196 26196 26196 26196 26196 26196 26196 26196 26196 26196 26196 26196 26196 26196 26196 26196 26196 26196 26196 26196 26195 26195 26195 26194 26193 26193 26192 26189 26189 26189 26189 26189 26189 26189 26189 26189 26189 26189 26189 26189 26189 26189 26189 26189 26189 26189 26189 26189 26189 26189 26189 26189 26189 26189 26189 26189 26189 26189 26189 26189 26189 26189 26189 26189 26188 26188 26186 26177 26177 26177 26175 26174 26174 26172 26162 26159 26115 26063 26054 26049 26035 25988 25973 25957 25957 25957 25957 25957 25957 25957 25957 25957 25957 25957 25957 25957 25957 25957 25957 25956 25956 25956 25952 25947 25940 25940 25940 25940 25940 25940 25940 25940 25940 25940 25940 25940 25940 25940 25940 25940 25940 25940 25940 25940 25940 25940 25940 25940 25940 25940 25940 25940 25940 25940 25940 25940 25939 25939 25939 25938 25938 25938 25938 25938 25938 25938 25938 25938 25938 25938 25938 25938 25938 25938 25938 25938 25938 25938 25938 25938 25938 25938 25938 25938 25938 25938 25938 25938 25938 25938 25938 25938 25938 25938 25938 25938 25938 25938 25938 25938 25938 25937 25937 25937 25937 25937 25937 25937 25937 25937 25937 25937 25937 25937 25937 25937 25937 25937 25937 25936 25936 25930 25907 25903 25903 25902 25899 25898 25898 25890 25857 25857 25857 25857 25857 25857 25857 25857 25857 25857 25857 25857 25857 25857 25857 25857 25857 25857 25857 25857 25857 25857 25857 25857 25857 25857 25857 25857 25857 25857 25857 25857 25857 25857 25857 25857 25857 25857 25857 25857 25857 25857 25857 25857 25857 25857 25857 25857 25857 25857 25857 25857 25857 25857 25857 25857 25857 25857 25857 25857 25857 25857 25857 25857 25857 25857 25857 25857 25857 25856 25856 25855 25849 25849 25849 25849 25849 25849 25849 25849 25849 25848 25848 25848 25846 25846 25846 25846 25846 25846 25846 25846 25846 25846 25846 25846 25846 25846 25846 25846 25846 25846 25846 25846 25846 25846 25846 25846 25846 25846 25846 25846 25846 25846 25846 25846 25846 25846 25846 25846 25846 25846 25846 25846 25846 25846 25846 25846 25846 25846 25846 25846 25846 25846 25846 25846 25846 25846 25846 25846 25846 25846 25846 25846 25846 25846 25846 25846 25846 25846 25846 25846 25846 25846 25846 25846 25846 25846 25846 25846 25846 25846 25846 25846 25846 25846 25846 25846 25846 25846 25846 25846 25846 25846 25846 25846 25846 25846 25846 25846 25846 25846 25846 25846 25846 25846 25846 25846 25846 25846 25846 25846 25846 25846 25846 25846 25846 25846 25846 25846 25846 